p cnf 331 1121
c p weight -131 1 0
c p weight 131 -1 0
c p weight 135 6.12323399573676603586882014729198302312846062338790031898128063403419218957424163818359375E-17 0
c p weight -135 1 0
c p weight 136 1 0
c p weight -136 1 0
c p weight -133 1 0
c p weight 133 -1 0
c p weight -137 1 0
c p weight 137 -1 0
c p weight -139 1 0
c p weight 139 -1 0
c p weight -142 1 0
c p weight 142 -1 0
c p weight -145 1 0
c p weight 145 -1 0
c p weight -148 1 0
c p weight 148 -1 0
c p weight -151 1 0
c p weight 151 -1 0
c p weight -154 1 0
c p weight 154 -1 0
c p weight -157 1 0
c p weight 157 -1 0
c p weight -160 1 0
c p weight 160 -1 0
c p weight -163 1 0
c p weight 163 -1 0
c p weight -166 1 0
c p weight 166 -1 0
c p weight -169 1 0
c p weight 169 -1 0
c p weight -172 1 0
c p weight 172 -1 0
c p weight -175 1 0
c p weight 175 -1 0
c p weight -178 1 0
c p weight 178 -1 0
c p weight -181 1 0
c p weight 181 -1 0
c p weight -184 1 0
c p weight 184 -1 0
c p weight -187 1 0
c p weight 187 -1 0
c p weight -190 1 0
c p weight 190 -1 0
c p weight -193 1 0
c p weight 193 -1 0
c p weight -196 1 0
c p weight 196 -1 0
c p weight -199 1 0
c p weight 199 -1 0
c p weight -202 1 0
c p weight 202 -1 0
c p weight -205 1 0
c p weight 205 -1 0
c p weight -208 1 0
c p weight 208 -1 0
c p weight -211 1 0
c p weight 211 -1 0
c p weight -214 1 0
c p weight 214 -1 0
c p weight -217 1 0
c p weight 217 -1 0
c p weight -220 1 0
c p weight 220 -1 0
c p weight -223 1 0
c p weight 223 -1 0
c p weight -226 1 0
c p weight 226 -1 0
c p weight -229 1 0
c p weight 229 -1 0
c p weight -232 1 0
c p weight 232 -1 0
c p weight -235 1 0
c p weight 235 -1 0
c p weight -238 1 0
c p weight 238 -1 0
c p weight -241 1 0
c p weight 241 -1 0
c p weight -244 1 0
c p weight 244 -1 0
c p weight -247 1 0
c p weight 247 -1 0
c p weight -250 1 0
c p weight 250 -1 0
c p weight -253 1 0
c p weight 253 -1 0
c p weight -256 1 0
c p weight 256 -1 0
c p weight -259 1 0
c p weight 259 -1 0
c p weight -262 1 0
c p weight 262 -1 0
c p weight -265 1 0
c p weight 265 -1 0
c p weight -268 1 0
c p weight 268 -1 0
c p weight -271 1 0
c p weight 271 -1 0
c p weight -274 1 0
c p weight 274 -1 0
c p weight -277 1 0
c p weight 277 -1 0
c p weight -280 1 0
c p weight 280 -1 0
c p weight -283 1 0
c p weight 283 -1 0
c p weight -286 1 0
c p weight 286 -1 0
c p weight -289 1 0
c p weight 289 -1 0
c p weight -292 1 0
c p weight 292 -1 0
c p weight -295 1 0
c p weight 295 -1 0
c p weight -298 1 0
c p weight 298 -1 0
c p weight -301 1 0
c p weight 301 -1 0
c p weight -304 1 0
c p weight 304 -1 0
c p weight -307 1 0
c p weight 307 -1 0
c p weight -310 1 0
c p weight 310 -1 0
c p weight -313 1 0
c p weight 313 -1 0
c p weight -316 1 0
c p weight 316 -1 0
c p weight -319 1 0
c p weight 319 -1 0
c p weight -322 1 0
c p weight 322 -1 0
c p weight -325 1 0
c p weight 325 -1 0
c p weight -328 1 0
c p weight 328 -1 0
c p weight 331 0.5 0
c p weight -331 1 0
331 0
-129 0
-127 0
-125 0
-123 0
-121 0
-119 0
-117 0
-115 0
-113 0
-111 0
-109 0
-107 0
-105 0
-103 0
-101 0
-99 0
-97 0
-95 0
-93 0
-91 0
-89 0
-87 0
-85 0
-83 0
-81 0
-79 0
-77 0
-75 0
-73 0
-71 0
-69 0
-67 0
-65 0
-63 0
-61 0
-59 0
-57 0
-55 0
-53 0
-51 0
-49 0
-47 0
-45 0
-43 0
-41 0
-39 0
-37 0
-35 0
-33 0
-31 0
-29 0
-27 0
-25 0
-23 0
-21 0
-19 0
-17 0
-15 0
-13 0
-11 0
-9 0
-7 0
-5 0
-3 0
-1 0
-131 129 0
-131 130 0
131 -129 -130 0
132 129 -130 0
132 -129 130 0
-132 129 130 0
-132 -129 -130 0
-133 134 0
-133 132 0
-133 -129 0
133 -134 129 -132 0
134 -129 132 0
-134 129 132 0
-135 132 0
134 -135 -129 0
-134 -135 129 0
134 135 129 -132 0
-134 135 -129 -132 0
-136 132 0
134 -136 129 0
-134 -136 -129 0
134 136 -129 -132 0
-134 136 129 -132 0
-137 134 0
-137 132 0
137 -134 -132 0
138 134 -132 0
138 -134 132 0
-138 134 132 0
-138 -134 -132 0
-139 134 0
-139 128 0
-139 127 -138 0
-139 -127 138 0
139 -134 127 138 -128 0
139 -134 -127 -138 -128 0
141 134 -127 0
141 -134 127 0
-141 134 127 0
-141 -134 -127 0
140 138 -128 0
140 -138 128 0
-140 138 128 0
-140 -138 -128 0
-142 141 0
-142 126 0
-142 125 -128 0
-142 -125 128 0
142 -141 125 128 -126 0
142 -141 -125 -128 -126 0
144 141 -125 0
144 -141 125 0
-144 141 125 0
-144 -141 -125 0
143 128 -126 0
143 -128 126 0
-143 128 126 0
-143 -128 -126 0
-145 144 0
-145 124 0
-145 123 -126 0
-145 -123 126 0
145 -144 123 126 -124 0
145 -144 -123 -126 -124 0
147 144 -123 0
147 -144 123 0
-147 144 123 0
-147 -144 -123 0
146 126 -124 0
146 -126 124 0
-146 126 124 0
-146 -126 -124 0
-148 147 0
-148 122 0
-148 121 -124 0
-148 -121 124 0
148 -147 121 124 -122 0
148 -147 -121 -124 -122 0
150 147 -121 0
150 -147 121 0
-150 147 121 0
-150 -147 -121 0
149 124 -122 0
149 -124 122 0
-149 124 122 0
-149 -124 -122 0
-151 150 0
-151 120 0
-151 119 -122 0
-151 -119 122 0
151 -150 119 122 -120 0
151 -150 -119 -122 -120 0
153 150 -119 0
153 -150 119 0
-153 150 119 0
-153 -150 -119 0
152 122 -120 0
152 -122 120 0
-152 122 120 0
-152 -122 -120 0
-154 153 0
-154 118 0
-154 117 -120 0
-154 -117 120 0
154 -153 117 120 -118 0
154 -153 -117 -120 -118 0
156 153 -117 0
156 -153 117 0
-156 153 117 0
-156 -153 -117 0
155 120 -118 0
155 -120 118 0
-155 120 118 0
-155 -120 -118 0
-157 156 0
-157 116 0
-157 115 -118 0
-157 -115 118 0
157 -156 115 118 -116 0
157 -156 -115 -118 -116 0
159 156 -115 0
159 -156 115 0
-159 156 115 0
-159 -156 -115 0
158 118 -116 0
158 -118 116 0
-158 118 116 0
-158 -118 -116 0
-160 159 0
-160 114 0
-160 113 -116 0
-160 -113 116 0
160 -159 113 116 -114 0
160 -159 -113 -116 -114 0
162 159 -113 0
162 -159 113 0
-162 159 113 0
-162 -159 -113 0
161 116 -114 0
161 -116 114 0
-161 116 114 0
-161 -116 -114 0
-163 162 0
-163 112 0
-163 111 -114 0
-163 -111 114 0
163 -162 111 114 -112 0
163 -162 -111 -114 -112 0
165 162 -111 0
165 -162 111 0
-165 162 111 0
-165 -162 -111 0
164 114 -112 0
164 -114 112 0
-164 114 112 0
-164 -114 -112 0
-166 165 0
-166 110 0
-166 109 -112 0
-166 -109 112 0
166 -165 109 112 -110 0
166 -165 -109 -112 -110 0
168 165 -109 0
168 -165 109 0
-168 165 109 0
-168 -165 -109 0
167 112 -110 0
167 -112 110 0
-167 112 110 0
-167 -112 -110 0
-169 168 0
-169 108 0
-169 107 -110 0
-169 -107 110 0
169 -168 107 110 -108 0
169 -168 -107 -110 -108 0
171 168 -107 0
171 -168 107 0
-171 168 107 0
-171 -168 -107 0
170 110 -108 0
170 -110 108 0
-170 110 108 0
-170 -110 -108 0
-172 171 0
-172 106 0
-172 105 -108 0
-172 -105 108 0
172 -171 105 108 -106 0
172 -171 -105 -108 -106 0
174 171 -105 0
174 -171 105 0
-174 171 105 0
-174 -171 -105 0
173 108 -106 0
173 -108 106 0
-173 108 106 0
-173 -108 -106 0
-175 174 0
-175 104 0
-175 103 -106 0
-175 -103 106 0
175 -174 103 106 -104 0
175 -174 -103 -106 -104 0
177 174 -103 0
177 -174 103 0
-177 174 103 0
-177 -174 -103 0
176 106 -104 0
176 -106 104 0
-176 106 104 0
-176 -106 -104 0
-178 177 0
-178 102 0
-178 101 -104 0
-178 -101 104 0
178 -177 101 104 -102 0
178 -177 -101 -104 -102 0
180 177 -101 0
180 -177 101 0
-180 177 101 0
-180 -177 -101 0
179 104 -102 0
179 -104 102 0
-179 104 102 0
-179 -104 -102 0
-181 180 0
-181 100 0
-181 99 -102 0
-181 -99 102 0
181 -180 99 102 -100 0
181 -180 -99 -102 -100 0
183 180 -99 0
183 -180 99 0
-183 180 99 0
-183 -180 -99 0
182 102 -100 0
182 -102 100 0
-182 102 100 0
-182 -102 -100 0
-184 183 0
-184 98 0
-184 97 -100 0
-184 -97 100 0
184 -183 97 100 -98 0
184 -183 -97 -100 -98 0
186 183 -97 0
186 -183 97 0
-186 183 97 0
-186 -183 -97 0
185 100 -98 0
185 -100 98 0
-185 100 98 0
-185 -100 -98 0
-187 186 0
-187 96 0
-187 95 -98 0
-187 -95 98 0
187 -186 95 98 -96 0
187 -186 -95 -98 -96 0
189 186 -95 0
189 -186 95 0
-189 186 95 0
-189 -186 -95 0
188 98 -96 0
188 -98 96 0
-188 98 96 0
-188 -98 -96 0
-190 189 0
-190 94 0
-190 93 -96 0
-190 -93 96 0
190 -189 93 96 -94 0
190 -189 -93 -96 -94 0
192 189 -93 0
192 -189 93 0
-192 189 93 0
-192 -189 -93 0
191 96 -94 0
191 -96 94 0
-191 96 94 0
-191 -96 -94 0
-193 192 0
-193 92 0
-193 91 -94 0
-193 -91 94 0
193 -192 91 94 -92 0
193 -192 -91 -94 -92 0
195 192 -91 0
195 -192 91 0
-195 192 91 0
-195 -192 -91 0
194 94 -92 0
194 -94 92 0
-194 94 92 0
-194 -94 -92 0
-196 195 0
-196 90 0
-196 89 -92 0
-196 -89 92 0
196 -195 89 92 -90 0
196 -195 -89 -92 -90 0
198 195 -89 0
198 -195 89 0
-198 195 89 0
-198 -195 -89 0
197 92 -90 0
197 -92 90 0
-197 92 90 0
-197 -92 -90 0
-199 198 0
-199 88 0
-199 87 -90 0
-199 -87 90 0
199 -198 87 90 -88 0
199 -198 -87 -90 -88 0
201 198 -87 0
201 -198 87 0
-201 198 87 0
-201 -198 -87 0
200 90 -88 0
200 -90 88 0
-200 90 88 0
-200 -90 -88 0
-202 201 0
-202 86 0
-202 85 -88 0
-202 -85 88 0
202 -201 85 88 -86 0
202 -201 -85 -88 -86 0
204 201 -85 0
204 -201 85 0
-204 201 85 0
-204 -201 -85 0
203 88 -86 0
203 -88 86 0
-203 88 86 0
-203 -88 -86 0
-205 204 0
-205 84 0
-205 83 -86 0
-205 -83 86 0
205 -204 83 86 -84 0
205 -204 -83 -86 -84 0
207 204 -83 0
207 -204 83 0
-207 204 83 0
-207 -204 -83 0
206 86 -84 0
206 -86 84 0
-206 86 84 0
-206 -86 -84 0
-208 207 0
-208 82 0
-208 81 -84 0
-208 -81 84 0
208 -207 81 84 -82 0
208 -207 -81 -84 -82 0
210 207 -81 0
210 -207 81 0
-210 207 81 0
-210 -207 -81 0
209 84 -82 0
209 -84 82 0
-209 84 82 0
-209 -84 -82 0
-211 210 0
-211 80 0
-211 79 -82 0
-211 -79 82 0
211 -210 79 82 -80 0
211 -210 -79 -82 -80 0
213 210 -79 0
213 -210 79 0
-213 210 79 0
-213 -210 -79 0
212 82 -80 0
212 -82 80 0
-212 82 80 0
-212 -82 -80 0
-214 213 0
-214 78 0
-214 77 -80 0
-214 -77 80 0
214 -213 77 80 -78 0
214 -213 -77 -80 -78 0
216 213 -77 0
216 -213 77 0
-216 213 77 0
-216 -213 -77 0
215 80 -78 0
215 -80 78 0
-215 80 78 0
-215 -80 -78 0
-217 216 0
-217 76 0
-217 75 -78 0
-217 -75 78 0
217 -216 75 78 -76 0
217 -216 -75 -78 -76 0
219 216 -75 0
219 -216 75 0
-219 216 75 0
-219 -216 -75 0
218 78 -76 0
218 -78 76 0
-218 78 76 0
-218 -78 -76 0
-220 219 0
-220 74 0
-220 73 -76 0
-220 -73 76 0
220 -219 73 76 -74 0
220 -219 -73 -76 -74 0
222 219 -73 0
222 -219 73 0
-222 219 73 0
-222 -219 -73 0
221 76 -74 0
221 -76 74 0
-221 76 74 0
-221 -76 -74 0
-223 222 0
-223 72 0
-223 71 -74 0
-223 -71 74 0
223 -222 71 74 -72 0
223 -222 -71 -74 -72 0
225 222 -71 0
225 -222 71 0
-225 222 71 0
-225 -222 -71 0
224 74 -72 0
224 -74 72 0
-224 74 72 0
-224 -74 -72 0
-226 225 0
-226 70 0
-226 69 -72 0
-226 -69 72 0
226 -225 69 72 -70 0
226 -225 -69 -72 -70 0
228 225 -69 0
228 -225 69 0
-228 225 69 0
-228 -225 -69 0
227 72 -70 0
227 -72 70 0
-227 72 70 0
-227 -72 -70 0
-229 228 0
-229 68 0
-229 67 -70 0
-229 -67 70 0
229 -228 67 70 -68 0
229 -228 -67 -70 -68 0
231 228 -67 0
231 -228 67 0
-231 228 67 0
-231 -228 -67 0
230 70 -68 0
230 -70 68 0
-230 70 68 0
-230 -70 -68 0
-232 231 0
-232 66 0
-232 65 -68 0
-232 -65 68 0
232 -231 65 68 -66 0
232 -231 -65 -68 -66 0
234 231 -65 0
234 -231 65 0
-234 231 65 0
-234 -231 -65 0
233 68 -66 0
233 -68 66 0
-233 68 66 0
-233 -68 -66 0
-235 234 0
-235 64 0
-235 63 -66 0
-235 -63 66 0
235 -234 63 66 -64 0
235 -234 -63 -66 -64 0
237 234 -63 0
237 -234 63 0
-237 234 63 0
-237 -234 -63 0
236 66 -64 0
236 -66 64 0
-236 66 64 0
-236 -66 -64 0
-238 237 0
-238 62 0
-238 61 -64 0
-238 -61 64 0
238 -237 61 64 -62 0
238 -237 -61 -64 -62 0
240 237 -61 0
240 -237 61 0
-240 237 61 0
-240 -237 -61 0
239 64 -62 0
239 -64 62 0
-239 64 62 0
-239 -64 -62 0
-241 240 0
-241 60 0
-241 59 -62 0
-241 -59 62 0
241 -240 59 62 -60 0
241 -240 -59 -62 -60 0
243 240 -59 0
243 -240 59 0
-243 240 59 0
-243 -240 -59 0
242 62 -60 0
242 -62 60 0
-242 62 60 0
-242 -62 -60 0
-244 243 0
-244 58 0
-244 57 -60 0
-244 -57 60 0
244 -243 57 60 -58 0
244 -243 -57 -60 -58 0
246 243 -57 0
246 -243 57 0
-246 243 57 0
-246 -243 -57 0
245 60 -58 0
245 -60 58 0
-245 60 58 0
-245 -60 -58 0
-247 246 0
-247 56 0
-247 55 -58 0
-247 -55 58 0
247 -246 55 58 -56 0
247 -246 -55 -58 -56 0
249 246 -55 0
249 -246 55 0
-249 246 55 0
-249 -246 -55 0
248 58 -56 0
248 -58 56 0
-248 58 56 0
-248 -58 -56 0
-250 249 0
-250 54 0
-250 53 -56 0
-250 -53 56 0
250 -249 53 56 -54 0
250 -249 -53 -56 -54 0
252 249 -53 0
252 -249 53 0
-252 249 53 0
-252 -249 -53 0
251 56 -54 0
251 -56 54 0
-251 56 54 0
-251 -56 -54 0
-253 252 0
-253 52 0
-253 51 -54 0
-253 -51 54 0
253 -252 51 54 -52 0
253 -252 -51 -54 -52 0
255 252 -51 0
255 -252 51 0
-255 252 51 0
-255 -252 -51 0
254 54 -52 0
254 -54 52 0
-254 54 52 0
-254 -54 -52 0
-256 255 0
-256 50 0
-256 49 -52 0
-256 -49 52 0
256 -255 49 52 -50 0
256 -255 -49 -52 -50 0
258 255 -49 0
258 -255 49 0
-258 255 49 0
-258 -255 -49 0
257 52 -50 0
257 -52 50 0
-257 52 50 0
-257 -52 -50 0
-259 258 0
-259 48 0
-259 47 -50 0
-259 -47 50 0
259 -258 47 50 -48 0
259 -258 -47 -50 -48 0
261 258 -47 0
261 -258 47 0
-261 258 47 0
-261 -258 -47 0
260 50 -48 0
260 -50 48 0
-260 50 48 0
-260 -50 -48 0
-262 261 0
-262 46 0
-262 45 -48 0
-262 -45 48 0
262 -261 45 48 -46 0
262 -261 -45 -48 -46 0
264 261 -45 0
264 -261 45 0
-264 261 45 0
-264 -261 -45 0
263 48 -46 0
263 -48 46 0
-263 48 46 0
-263 -48 -46 0
-265 264 0
-265 44 0
-265 43 -46 0
-265 -43 46 0
265 -264 43 46 -44 0
265 -264 -43 -46 -44 0
267 264 -43 0
267 -264 43 0
-267 264 43 0
-267 -264 -43 0
266 46 -44 0
266 -46 44 0
-266 46 44 0
-266 -46 -44 0
-268 267 0
-268 42 0
-268 41 -44 0
-268 -41 44 0
268 -267 41 44 -42 0
268 -267 -41 -44 -42 0
270 267 -41 0
270 -267 41 0
-270 267 41 0
-270 -267 -41 0
269 44 -42 0
269 -44 42 0
-269 44 42 0
-269 -44 -42 0
-271 270 0
-271 40 0
-271 39 -42 0
-271 -39 42 0
271 -270 39 42 -40 0
271 -270 -39 -42 -40 0
273 270 -39 0
273 -270 39 0
-273 270 39 0
-273 -270 -39 0
272 42 -40 0
272 -42 40 0
-272 42 40 0
-272 -42 -40 0
-274 273 0
-274 38 0
-274 37 -40 0
-274 -37 40 0
274 -273 37 40 -38 0
274 -273 -37 -40 -38 0
276 273 -37 0
276 -273 37 0
-276 273 37 0
-276 -273 -37 0
275 40 -38 0
275 -40 38 0
-275 40 38 0
-275 -40 -38 0
-277 276 0
-277 36 0
-277 35 -38 0
-277 -35 38 0
277 -276 35 38 -36 0
277 -276 -35 -38 -36 0
279 276 -35 0
279 -276 35 0
-279 276 35 0
-279 -276 -35 0
278 38 -36 0
278 -38 36 0
-278 38 36 0
-278 -38 -36 0
-280 279 0
-280 34 0
-280 33 -36 0
-280 -33 36 0
280 -279 33 36 -34 0
280 -279 -33 -36 -34 0
282 279 -33 0
282 -279 33 0
-282 279 33 0
-282 -279 -33 0
281 36 -34 0
281 -36 34 0
-281 36 34 0
-281 -36 -34 0
-283 282 0
-283 32 0
-283 31 -34 0
-283 -31 34 0
283 -282 31 34 -32 0
283 -282 -31 -34 -32 0
285 282 -31 0
285 -282 31 0
-285 282 31 0
-285 -282 -31 0
284 34 -32 0
284 -34 32 0
-284 34 32 0
-284 -34 -32 0
-286 285 0
-286 30 0
-286 29 -32 0
-286 -29 32 0
286 -285 29 32 -30 0
286 -285 -29 -32 -30 0
288 285 -29 0
288 -285 29 0
-288 285 29 0
-288 -285 -29 0
287 32 -30 0
287 -32 30 0
-287 32 30 0
-287 -32 -30 0
-289 288 0
-289 28 0
-289 27 -30 0
-289 -27 30 0
289 -288 27 30 -28 0
289 -288 -27 -30 -28 0
291 288 -27 0
291 -288 27 0
-291 288 27 0
-291 -288 -27 0
290 30 -28 0
290 -30 28 0
-290 30 28 0
-290 -30 -28 0
-292 291 0
-292 26 0
-292 25 -28 0
-292 -25 28 0
292 -291 25 28 -26 0
292 -291 -25 -28 -26 0
294 291 -25 0
294 -291 25 0
-294 291 25 0
-294 -291 -25 0
293 28 -26 0
293 -28 26 0
-293 28 26 0
-293 -28 -26 0
-295 294 0
-295 24 0
-295 23 -26 0
-295 -23 26 0
295 -294 23 26 -24 0
295 -294 -23 -26 -24 0
297 294 -23 0
297 -294 23 0
-297 294 23 0
-297 -294 -23 0
296 26 -24 0
296 -26 24 0
-296 26 24 0
-296 -26 -24 0
-298 297 0
-298 22 0
-298 21 -24 0
-298 -21 24 0
298 -297 21 24 -22 0
298 -297 -21 -24 -22 0
300 297 -21 0
300 -297 21 0
-300 297 21 0
-300 -297 -21 0
299 24 -22 0
299 -24 22 0
-299 24 22 0
-299 -24 -22 0
-301 300 0
-301 20 0
-301 19 -22 0
-301 -19 22 0
301 -300 19 22 -20 0
301 -300 -19 -22 -20 0
303 300 -19 0
303 -300 19 0
-303 300 19 0
-303 -300 -19 0
302 22 -20 0
302 -22 20 0
-302 22 20 0
-302 -22 -20 0
-304 303 0
-304 18 0
-304 17 -20 0
-304 -17 20 0
304 -303 17 20 -18 0
304 -303 -17 -20 -18 0
306 303 -17 0
306 -303 17 0
-306 303 17 0
-306 -303 -17 0
305 20 -18 0
305 -20 18 0
-305 20 18 0
-305 -20 -18 0
-307 306 0
-307 16 0
-307 15 -18 0
-307 -15 18 0
307 -306 15 18 -16 0
307 -306 -15 -18 -16 0
309 306 -15 0
309 -306 15 0
-309 306 15 0
-309 -306 -15 0
308 18 -16 0
308 -18 16 0
-308 18 16 0
-308 -18 -16 0
-310 309 0
-310 14 0
-310 13 -16 0
-310 -13 16 0
310 -309 13 16 -14 0
310 -309 -13 -16 -14 0
312 309 -13 0
312 -309 13 0
-312 309 13 0
-312 -309 -13 0
311 16 -14 0
311 -16 14 0
-311 16 14 0
-311 -16 -14 0
-313 312 0
-313 12 0
-313 11 -14 0
-313 -11 14 0
313 -312 11 14 -12 0
313 -312 -11 -14 -12 0
315 312 -11 0
315 -312 11 0
-315 312 11 0
-315 -312 -11 0
314 14 -12 0
314 -14 12 0
-314 14 12 0
-314 -14 -12 0
-316 315 0
-316 10 0
-316 9 -12 0
-316 -9 12 0
316 -315 9 12 -10 0
316 -315 -9 -12 -10 0
318 315 -9 0
318 -315 9 0
-318 315 9 0
-318 -315 -9 0
317 12 -10 0
317 -12 10 0
-317 12 10 0
-317 -12 -10 0
-319 318 0
-319 8 0
-319 7 -10 0
-319 -7 10 0
319 -318 7 10 -8 0
319 -318 -7 -10 -8 0
321 318 -7 0
321 -318 7 0
-321 318 7 0
-321 -318 -7 0
320 10 -8 0
320 -10 8 0
-320 10 8 0
-320 -10 -8 0
-322 321 0
-322 6 0
-322 5 -8 0
-322 -5 8 0
322 -321 5 8 -6 0
322 -321 -5 -8 -6 0
324 321 -5 0
324 -321 5 0
-324 321 5 0
-324 -321 -5 0
323 8 -6 0
323 -8 6 0
-323 8 6 0
-323 -8 -6 0
-325 324 0
-325 4 0
-325 3 -6 0
-325 -3 6 0
325 -324 3 6 -4 0
325 -324 -3 -6 -4 0
327 324 -3 0
327 -324 3 0
-327 324 3 0
-327 -324 -3 0
326 6 -4 0
326 -6 4 0
-326 6 4 0
-326 -6 -4 0
-328 327 0
-328 2 0
-328 1 -4 0
-328 -1 4 0
328 -327 1 4 -2 0
328 -327 -1 -4 -2 0
330 327 -1 0
330 -327 1 0
-330 327 1 0
-330 -327 -1 0
329 4 -2 0
329 -4 2 0
-329 4 2 0
-329 -4 -2 0
-330 0
-327 0
-329 0
-324 0
-326 0
-321 0
-323 0
-318 0
-320 0
-315 0
-317 0
-312 0
-314 0
-309 0
-311 0
-306 0
-308 0
-303 0
-305 0
-300 0
-302 0
-297 0
-299 0
-294 0
-296 0
-291 0
-293 0
-288 0
-290 0
-285 0
-287 0
-282 0
-284 0
-279 0
-281 0
-276 0
-278 0
-273 0
-275 0
-270 0
-272 0
-267 0
-269 0
-264 0
-266 0
-261 0
-263 0
-258 0
-260 0
-255 0
-257 0
-252 0
-254 0
-249 0
-251 0
-246 0
-248 0
-243 0
-245 0
-240 0
-242 0
-237 0
-239 0
-234 0
-236 0
-231 0
-233 0
-228 0
-230 0
-225 0
-227 0
-222 0
-224 0
-219 0
-221 0
-216 0
-218 0
-213 0
-215 0
-210 0
-212 0
-207 0
-209 0
-204 0
-206 0
-201 0
-203 0
-198 0
-200 0
-195 0
-197 0
-192 0
-194 0
-189 0
-191 0
-186 0
-188 0
-183 0
-185 0
-180 0
-182 0
-177 0
-179 0
-174 0
-176 0
-171 0
-173 0
-168 0
-170 0
-165 0
-167 0
-162 0
-164 0
-159 0
-161 0
-156 0
-158 0
-153 0
-155 0
-150 0
-152 0
-147 0
-149 0
-144 0
-146 0
-141 0
-143 0
-134 0
-140 0
